N = 14;
H = 5;
T = 2;

avail = array3d(1..N, 1..H, 1..T, [9, 7, 5, 2, 6, 2, 4, 8, 6, 9, 8, 7, 6, 4, 8, 9, 9, 10, 3, 9, 8, 8, 8, 9, 10, 7, 0, 6, 7, 0, 0, 7, 1, 7, 3, 3, 6, 4, 3, 8, 10, 8, 0, 8, 9, 5, 8, 8, 8, 5, 9, 7, 8, 6, 7, 1, 6, 2, 4, 6, 8, 9, 4, 0, 5, 7, 7, 4, 2, 4, 2, 6, 8, 2, 8, 6, 6, 8, 1, 3, 0, 5, 0, 0, 10, 9, 5, 6, 9, 6, 8, 4, 6, 1, 10, 9, 9, 0, 10, 0, 5, 10, 0, 9, 9, 9, 2, 0, 0, 2, 5, 5, 3, 4, 7, 3, 5, 5, 9, 3, 2, 5, 4, 6, 1, 2, 9, 0, 0, 8, 8, 9, 6, 2, 2, 10, 9, 3, 0, 6]);

r = array2d(1..H, 1..T, [4, 5, 2, 2, 3, 2, 2, 3, 1, 4]);
